p cnf 19 61
13 14 0
-1 -7 0
-1 -17 0
-7 -17 0
-3 -5 0
-3 -9 0
-3 -11 0
-3 -13 0
-3 -15 0
-3 -18 0
-5 -9 0
-5 -11 0
-5 -13 0
-5 -15 0
-5 -18 0
-9 -11 0
-9 -13 0
-9 -15 0
-9 -18 0
-11 -13 0
-11 -15 0
-11 -18 0
-13 -15 0
-13 -18 0
-15 -18 0
-2 -4 0
-2 -6 0
-2 -8 0
-2 -10 0
-2 -12 0
-2 -14 0
-2 -16 0
-2 -19 0
-4 -6 0
-4 -8 0
-4 -10 0
-4 -12 0
-4 -14 0
-4 -16 0
-4 -19 0
-6 -8 0
-6 -10 0
-6 -12 0
-6 -14 0
-6 -16 0
-6 -19 0
-8 -10 0
-8 -12 0
-8 -14 0
-8 -16 0
-8 -19 0
-10 -12 0
-10 -14 0
-10 -16 0
-10 -19 0
-12 -14 0
-12 -16 0
-12 -19 0
-14 -16 0
-14 -19 0
-16 -19 0
